%chk=YZ-IX-171.chk
%nprocshared=16
%mem=16GB
#p opt=Restart wb97xd/6-31G** iop(3/107=0103900000,3/108=0103900000) TDA=(singlets, nstates=4, root=1)

Tuning input file generated by xtune with parameters: w01039

0 1
 C                 -2.30941100    0.27702200    1.58438000
 C                 -1.09478200    2.08570000    0.94507100
 C                 -2.76061600   -1.00256300    1.88247500
 C                 -3.01923600    1.41746600    2.01171400
 C                 -0.15537000    2.95752400    0.40423600
 C                 -2.24381500    2.57350900    1.60369200
 C                 -3.96892900   -1.12428400    2.56359600
 H                 -2.20590700   -1.88603400    1.59192400
 C                 -4.22132600    1.26499200    2.70016600
 C                 -0.37783100    4.32717300    0.54547000
 H                  0.72765900    2.59878300   -0.11210200
 C                 -2.43776500    3.94727200    1.72803200
 C                 -4.72592800   -0.01111100    2.97558500
 H                 -4.32279700   -2.12578000    2.77197700
 H                 -4.76259100    2.15025800    3.01858000
 C                 -1.50604200    4.85144800    1.20304100
 H                  0.36223700    4.99776500    0.12660500
 H                 -3.32742700    4.30834400    2.23418400
 C                 -0.26878100   -0.13672300    0.18917400
 C                 -0.72239700   -1.01996700   -0.81955900
 C                  0.20984100   -1.81546300   -1.49168300
 C                  1.56819200   -1.73538800   -1.20694300
 C                  2.02964300   -0.83696900   -0.23413800
 C                  1.10207200   -0.05656800    0.45056500
 H                 -0.12498300   -2.47729400   -2.28196500
 C                  4.16001000   -1.34917500    1.00367000
 C                  4.12390900    0.47767600   -0.33379600
 C                  3.84681500   -2.50601400    1.71347200
 C                  5.38958500   -0.68592300    1.18764500
 C                  3.78108800    1.47322900   -1.24115900
 C                  5.36982200    0.48366600    0.32964800
 C                  4.79808000   -2.98820900    2.60176600
 H                  2.90909500   -3.02525000    1.56062600
 C                  6.33000000   -1.20204200    2.08681000
 C                  4.71010900    2.48467300   -1.47594400
 H                  2.83223800    1.45730800   -1.76533700
 C                  6.27893200    1.50878000    0.07017900
 C                  6.04911500   -2.36154300    2.80883000
 H                  4.56092600   -3.89320400    3.15125600
 H                  7.27187100   -0.68214900    2.21460700
 C                  5.96503600    2.52775500   -0.83726400
 H                  4.44071900    3.25685500   -2.18581000
 H                  7.23487600    1.50768600    0.58449600
 C                 -6.07189000   -0.15334900    3.70915100
 C                 -1.74599200    6.36438600    1.35857200
 N                 -1.14336200    0.68384400    0.92230700
 N                  3.40649100   -0.65630100    0.05027400
 C                  6.98641200    3.65086300   -1.09696600
 C                  7.04207100   -2.97718600    3.81028800
 S                  2.65142200   -2.86122500   -2.12541700
 C                  3.89006200   -1.80451000   -2.86647200
 C                  3.53295200   -1.00824700   -3.95562600
 C                  5.18204900   -1.80609400   -2.34652100
 C                  4.49776500   -0.18066800   -4.52362600
 H                  2.52582700   -1.04773100   -4.35461400
 C                  6.13733200   -0.97381300   -2.92613400
 H                  5.41993300   -2.43607900   -1.49774300
 C                  5.79457900   -0.16176700   -4.00661700
 H                  4.23876300    0.44573100   -5.36994900
 H                  7.14331700   -0.95267700   -2.52434000
 H                  6.54049700    0.48851300   -4.44985300
 O                  3.30763400   -3.74885800   -1.16450400
 O                  1.82414000   -3.41531000   -3.20142200
 H                  1.45445600    0.61173000    1.22749800
 C                  7.26100500    4.40763400    0.22265500
 H                  7.67106200    3.74641400    0.99099800
 H                  7.98229700    5.21556600    0.05916000
 H                  6.33973800    4.84606000    0.61746000
 C                  6.48715700    4.66976100   -2.13765300
 H                  6.29362000    4.19944700   -3.10692600
 H                  5.57221600    5.17226800   -1.80899300
 H                  7.24757100    5.44113500   -2.29205000
 C                  8.30517200    3.03947800   -1.62226400
 H                  8.13655500    2.49917600   -2.55839000
 H                  9.04410700    3.82563300   -1.81047600
 H                  8.74296800    2.33873800   -0.90609000
 C                  6.39614800   -3.02440300    5.21387200
 H                  5.48849800   -3.63396300    5.22416600
 H                  7.09286800   -3.45518000    5.94094100
 H                  6.12730800   -2.01915100    5.55182000
 C                  8.34567300   -2.16468700    3.91203100
 H                  8.87116000   -2.11821500    2.95297300
 H                  8.16118700   -1.14192400    4.25553800
 H                  9.01928300   -2.63738000    4.63307600
 C                  7.40405800   -4.41100400    3.35998900
 H                  6.52425100   -5.05853600    3.31596000
 H                  7.86087400   -4.40218300    2.36595200
 H                  8.11495600   -4.86340500    4.05973100
 C                 -3.07006200    6.74849100    0.65956800
 H                 -3.92449300    6.21678600    1.08739900
 H                 -3.26090900    7.82198100    0.76347800
 H                 -3.02840200    6.51123300   -0.40757200
 C                 -1.83471300    6.71877100    2.86049200
 H                 -1.99953700    7.79365400    2.99096900
 H                 -2.65810400    6.19510900    3.35392600
 H                 -0.90976200    6.44910700    3.37865600
 C                 -0.61619700    7.20477100    0.73589200
 H                  0.35003500    7.00003300    1.20731000
 H                 -0.52111900    7.02604000   -0.33974200
 H                 -0.83049500    8.26880400    0.87377200
 C                 -7.18222500    0.51373400    2.86579300
 H                 -8.15315500    0.41563500    3.36335700
 H                 -6.99179600    1.57989000    2.71558900
 H                 -7.25243800    0.04582800    1.87969200
 C                 -5.98558700    0.53753200    5.08885300
 H                 -5.76282600    1.60420400    4.99676900
 H                 -6.93626100    0.44258800    5.62448100
 H                 -5.20093400    0.08443700    5.70198300
 C                 -6.46386100   -1.62497400    3.93454700
 H                 -6.57326800   -2.16461700    2.98931000
 H                 -5.72913300   -2.15212800    4.55105600
 H                 -7.42505100   -1.67378000    4.45518000
 N                 -2.08074300   -1.12175800   -1.17191800
 C                 -2.92909400   -0.06065700   -1.51060900
 C                 -2.85599600   -2.28520800   -1.06689700
 C                 -2.62546500    1.26671800   -1.78676500
 C                 -4.25251200   -0.53891200   -1.60160000
 C                 -2.48026900   -3.58172200   -0.73150800
 C                 -4.20616500   -1.96093200   -1.31929300
 C                 -3.67721000    2.12405700   -2.09981300
 H                 -1.60892000    1.63892200   -1.75309300
 C                 -5.28359900    0.34079200   -1.92603100
 C                 -3.47852200   -4.55331800   -0.66580400
 H                 -1.44854700   -3.84244000   -0.52433900
 C                 -5.18019000   -2.95427500   -1.24561700
 C                 -5.01574200    1.69332200   -2.16716200
 H                 -3.43226100    3.16068900   -2.29261300
 H                 -6.29922500   -0.03727500   -1.98682300
 C                 -4.83396000   -4.27129500   -0.91964700
 H                 -3.17695900   -5.56136000   -0.40970700
 H                 -6.21512700   -2.69100500   -1.43993000
 C                 -6.17661900    2.65108900   -2.49163100
 C                 -5.93123700   -5.34925200   -0.84909700
 C                 -5.69599800    4.09281800   -2.73799500
 C                 -6.90942200    2.16562600   -3.76268100
 C                 -7.16402500    2.67266600   -1.30264300
 C                 -5.36872500   -6.73644500   -0.48911600
 C                 -6.96714600   -4.95769400    0.22921100
 C                 -6.63296900   -5.45817000   -2.22204400
 H                 -5.19504900    4.50903300   -1.85898600
 H                 -5.00976500    4.15321400   -3.58846600
 H                 -6.55440300    4.73326800   -2.96233200
 H                 -6.22740400    2.13731000   -4.61764500
 H                 -7.32518900    1.16239600   -3.63455200
 H                 -7.73792000    2.83889400   -4.00774200
 H                 -6.66178500    3.00348700   -0.38905600
 H                 -7.99492700    3.35694500   -1.50597400
 H                 -7.58762200    1.68328900   -1.10998700
 H                 -4.64595400   -7.08763700   -1.23194300
 H                 -4.88407000   -6.73739600    0.49221100
 H                 -6.18373000   -7.46557700   -0.45304600
 H                 -7.43969100   -3.99638000    0.00892700
 H                 -7.75976800   -5.71108100    0.29077300
 H                 -6.49327300   -4.88051000    1.21222000
 H                 -7.10557000   -4.51596100   -2.51301400
 H                 -5.91689000   -5.72770100   -3.00387300
 H                 -7.41352900   -6.22596100   -2.19295800





