%chk=YZ-VIII-197.chk
%nprocshared=16
%mem=16GB
#p opt=Restart wB97XD/6-31G** iop(3/107=0119500000,3/108=0119500000) TDA=(singlets, nstates=4, root=1)
 
Tuning input file generated by xtune with parameters: w01195
 
0 1
C                   1.238414 1.749477 1.085343
C                   2.542651 0.742013 -0.478214
C                   0.205405 2.103178 1.950665
C                   2.514948 2.343224 1.169139
C                   3.023876 -0.023080 -1.538331
C                   3.346083 1.701547 0.171801
C                   0.459963 3.101504 2.885582
H                   -0.766592 1.627442 1.901546
C                   2.749591 3.339275 2.119444
C                   4.350325 0.159893 -1.915877
H                   2.397378 -0.741651 -2.052742
C                   4.673359 1.872260 -0.227733
C                   1.716253 3.719240 2.969032
H                   -0.334255 3.405526 3.558799
H                   3.726234 3.805733 2.194896
C                   5.171337 1.093272 -1.266479
H                   4.752154 -0.436429 -2.727781
H                   5.303832 2.605798 0.263747
C                   0.174654 -0.034569 -0.303417
C                   -1.023179 0.548178 -0.786074
C                   -2.091200 -0.260589 -1.172522
C                   -1.984750 -1.640111 -1.059332
C                   -0.826045 -2.239660 -0.588710
C                   0.260876 -1.445249 -0.217774
N                   1.258103 0.773595 0.080523
S                   -3.401029 -2.663410 -1.481813
O                   -4.133907 -1.980450 -2.548375
O                   -2.915955 -4.035868 -1.632363
H                   1.883023 4.495708 3.707676
H                   6.201925 1.211283 -1.583073
H                   -2.982786 0.195326 -1.586279
H                   -0.759944 -3.317617 -0.500227
C                   -4.900957 -3.389600 2.210686
C                   -4.153747 -3.487961 1.039034
C                   -4.393719 -2.578008 0.010333
C                   -5.364136 -1.582750 0.122024
C                   -6.103550 -1.494754 1.299881
C                   -5.869148 -2.393134 2.341646
H                   -4.730171 -4.093055 3.018045
H                   -3.407996 -4.264349 0.912588
H                   -5.544942 -0.907769 -0.706616
H                   -6.866350 -0.730438 1.399876
H                   -6.447907 -2.321046 3.256277
C                   -3.852657 4.519394 0.991627
C                   -4.036578 3.146178 1.210533
C                   -3.201590 2.199715 0.622797
C                   -2.173032 2.666331 -0.197115
C                   -1.966265 4.045334 -0.420641
C                   -2.819065 4.974503 0.179578
H                   -4.522197 5.231027 1.462250
H                   -4.845419 2.809975 1.850898
H                   -3.348972 1.140545 0.803248
H                   -2.672223 6.037240 0.017899
C                   -0.359857 2.851968 -1.551684
C                   0.709381 2.601173 -2.408898
C                   1.360415 3.697769 -2.962557
C                   0.944694 5.009943 -2.688582
C                   -0.145075 5.249381 -1.859837
C                   -0.810236 4.162755 -1.285590
H                   1.030580 1.592618 -2.637099
H                   2.206436 3.529210 -3.619813
H                   1.475019 5.843291 -3.136364
H                   -0.477168 6.263257 -1.662484
N                   -1.183483 1.945253 -0.875379
C                   4.033807 -4.728094 -1.628765
C                   2.876775 -4.370696 -2.336722
C                   1.935738 -3.498615 -1.796186
C                   2.183368 -2.993227 -0.519319
C                   3.345741 -3.336159 0.205324
C                   4.274427 -4.213641 -0.359243
H                   4.745960 -5.411795 -2.077708
H                   2.705944 -4.781954 -3.325873
H                   1.045889 -3.228234 -2.353609
H                   5.173052 -4.485003 0.184849
C                   2.089778 -1.869530 1.452328
C                   1.690001 -1.108672 2.548976
C                   2.538779 -1.069863 3.649635
C                   3.744350 -1.787809 3.668475
C                   4.118244 -2.572520 2.583707
C                   3.284624 -2.620664 1.463260
H                   0.756485 -0.559933 2.550038
H                   2.258035 -0.469771 4.508350
H                   4.384779 -1.735047 4.542169
H                   5.041720 -3.141651 2.605500
N                   1.430443 -2.086624 0.237491









