%chk=YZ-IX-137.chk
%nprocshared=16
%mem=16GB
#p opt=Restart wb97xd/6-31G** iop(3/107=0105700000,3/108=0105700000) TDA=(triplets, nstates=4, root=1)

Tuning input file generated by xtune with parameters: w01057

0 1
 C                  1.18875000   -1.00843400   -0.61197700
 C                 -0.64937100   -0.95778000    0.71773700
 C                  2.20014700   -0.72750500   -1.52152800
 C                  1.04878500   -2.29596800   -0.05626800
 C                 -1.75201100   -0.58536800    1.47588600
 C                 -0.13138900   -2.26669400    0.78479800
 C                  3.10900400   -1.74014000   -1.82044000
 H                  2.30091800    0.24757700   -1.98202500
 C                  1.96796500   -3.29118000   -0.37877300
 C                 -2.36869100   -1.56130600    2.25583700
 H                 -2.13935100    0.42594400    1.46310600
 C                 -0.76417700   -3.22029600    1.57846700
 C                  3.02645000   -3.02617400   -1.25575600
 H                  3.90711700   -1.50210700   -2.51196000
 H                  1.85399100   -4.27587700    0.06351800
 C                 -1.90628600   -2.88859900    2.31721000
 H                 -3.24154200   -1.26482500    2.82345200
 H                 -0.35976900   -4.22691800    1.61465200
 C                 -0.04851900    1.16070900   -0.45976500
 C                 -1.25777500    1.57986400   -1.07233500
 C                 -1.45529100    2.92408600   -1.38782300
 C                 -0.47212400    3.85446500   -1.07651100
 C                  0.72105100    3.47497600   -0.47871100
 C                  0.94738000    2.12951400   -0.17821300
 H                 -2.35995000    3.22269400   -1.90321300
 H                  1.47484800    4.21408900   -0.23614300
 C                  4.05330100   -4.13126800   -1.56049200
 C                 -2.61067300   -3.97237900    3.15281000
 N                  0.15387700   -0.19101100   -0.13725200
 C                 -1.77367800    6.09231900   -0.00437600
 C                 -3.16380400    6.04177600   -0.10640500
 C                 -1.13862100    6.49074000    1.17174100
 C                 -3.93261900    6.39029700    1.00301500
 H                 -3.62690200    5.75348000   -1.04278800
 C                 -1.91885600    6.83703900    2.27304700
 H                 -0.05691900    6.54197000    1.21343000
 C                 -3.31126600    6.78227500    2.18965400
 H                 -5.01462600    6.36189200    0.93738500
 H                 -1.44006500    7.15336700    3.19299800
 H                 -3.91376900    7.05266300    3.05009300
 O                  0.51185100    6.28623200   -1.32933200
 O                 -1.61814200    5.67377300   -2.60814200
 C                  3.33578300   -5.34931500   -2.18449100
 H                  4.05379200   -6.14749900   -2.40162300
 H                  2.57528500   -5.76105100   -1.51511000
 H                  2.84210800   -5.07086000   -3.12029700
 C                  4.74404800   -4.55646100   -0.24442100
 H                  5.49233700   -5.33302900   -0.43669600
 H                  5.24596800   -3.70328800    0.22159400
 H                  4.02756700   -4.95680000    0.47829800
 C                  5.14349300   -3.66406300   -2.54172800
 H                  4.72197800   -3.36955800   -3.50791500
 H                  5.71395400   -2.82038800   -2.14212700
 H                  5.84785400   -4.48102000   -2.72574400
 C                 -3.84560600   -3.43012100    3.89482900
 H                 -3.58085000   -2.63437800    4.59823000
 H                 -4.59700200   -3.04209000    3.20078200
 H                 -4.31238700   -4.23541700    4.47017700
 C                 -3.07683400   -5.11025100    2.21615500
 H                 -2.23571200   -5.57866900    1.69774200
 H                 -3.59287500   -5.89016600    2.78659900
 H                 -3.76467400   -4.72791100    1.45631700
 C                 -1.62943700   -4.53814200    4.20388100
 H                 -2.11558400   -5.31614400    4.80235300
 H                 -0.74527700   -4.98217600    3.73837900
 H                 -1.28963700   -3.74923400    4.88154700
 S                 -0.77610400    5.59453100   -1.41302200
 N                  2.18500100    1.77668200    0.39703800
 C                  2.39013800    0.99326600    1.53928800
 C                  3.42521400    1.95668100   -0.23453200
 C                  1.48529100    0.59761900    2.52104600
 C                  3.75184600    0.65110400    1.62817900
 C                  3.74069900    2.63008400   -1.41037800
 C                  4.41635400    1.26905100    0.49808200
 C                  1.95825100   -0.20734700    3.54767500
 H                  0.44234100    0.88659000    2.48508400
 C                  4.20250100   -0.15224700    2.67998400
 C                  5.06921300    2.61492000   -1.83409600
 H                  2.98838300    3.15224200   -1.99058100
 C                  5.73524100    1.27321200    0.04847400
 C                  3.30822300   -0.61220300    3.64618500
 H                  1.24528100   -0.53897200    4.29496000
 H                  5.25238600   -0.41564800    2.72377200
 C                  6.08710000    1.94855500   -1.12618600
 H                  5.30687200    3.14582700   -2.74755600
 H                  6.48657800    0.73707400    0.61963300
 C                  3.73155000   -1.54628300    4.79222600
 C                  7.55208700    1.93468800   -1.59970000
 C                  3.41146000   -0.88512500    6.15170100
 C                  2.95528600   -2.87758300    4.66832900
 C                  5.23703700   -1.86468200    4.75806700
 C                  7.99179500    0.47644100   -1.86285300
 C                  8.45159800    2.55456800   -0.50638700
 C                  7.75683800    2.73671700   -2.89769000
 H                  2.34319300   -0.68085800    6.26449700
 H                  3.71137800   -1.54133400    6.97579500
 H                  3.94631900    0.06341600    6.25801200
 H                  1.87504600   -2.72412900    4.73226200
 H                  3.16555800   -3.35903400    3.70882400
 H                  3.24424200   -3.56589400    5.47012400
 H                  5.52326400   -2.37161000    3.83126100
 H                  5.84578900   -0.96070600    4.86024800
 H                  5.49235600   -2.52959000    5.58873000
 H                  9.03409000    0.44491300   -2.19800800
 H                  7.91367700   -0.14022900   -0.96306600
 H                  7.37037600    0.01806400   -2.63789500
 H                  8.39565200    1.99520400    0.43157300
 H                  9.49836600    2.55831800   -0.82879200
 H                  8.15419400    3.58650000   -0.29790300
 H                  7.17142200    2.32671300   -3.72656900
 H                  7.48724100    3.78985700   -2.77187300
 H                  8.81044500    2.69962000   -3.19053200
 N                 -2.29337600    0.67066900   -1.36576200
 C                 -3.57855700    0.73865400   -0.80921400
 C                 -2.17989800   -0.54555900   -2.05108400
 C                 -4.15945900    1.72644300   -0.02036800
 C                 -4.27888100   -0.44593100   -1.12275900
 C                 -1.13039300   -1.03969700   -2.81498100
 C                 -3.38219500   -1.26828900   -1.91241400
 C                 -5.46024600    1.51637800    0.43696900
 H                 -3.62607800    2.63256300    0.24431700
 C                 -5.57747700   -0.62534600   -0.65184300
 C                 -1.27477300   -2.30378000   -3.37956000
 H                 -0.21730300   -0.47642100   -2.96115600
 C                 -3.50236200   -2.52787200   -2.49719800
 C                 -6.19487800    0.35474200    0.13527400
 H                 -5.90514100    2.29199700    1.04825500
 H                 -6.10361800   -1.54209300   -0.89864200
 C                 -2.44137800   -3.07700700   -3.22575200
 H                 -0.44079000   -2.69049500   -3.95109000
 H                 -4.42795600   -3.08097100   -2.37264500
 C                 -7.63176100    0.12842600    0.63986800
 C                 -2.57817800   -4.49144300   -3.81729900
 C                 -7.67131300   -1.13752300    1.52568600
 C                 -8.57734600   -0.05847600   -0.56832800
 C                 -8.15355200    1.31160200    1.47530800
 C                 -1.32189700   -4.92562500   -4.59406800
 C                 -2.80167300   -5.49951000   -2.66684800
 C                 -3.78146900   -4.53651900   -4.78554200
 H                 -8.68808800   -1.31875200    1.89037800
 H                 -7.35211500   -2.02763400    0.97651400
 H                 -7.01303700   -1.02502300    2.39219100
 H                 -8.56122800    0.82410100   -1.21457900
 H                 -8.29402300   -0.92190800   -1.17640700
 H                 -9.60663700   -0.21534500   -0.22831400
 H                 -7.54616800    1.47730100    2.37070000
 H                 -8.17588800    2.23969500    0.89553400
 H                 -9.17600500    1.10585100    1.80607600
 H                 -1.11859000   -4.26367100   -5.44161400
 H                 -0.43596000   -4.94801500   -3.95236100
 H                 -1.46622500   -5.93465200   -4.99213500
 H                 -3.71442000   -5.27854800   -2.10659100
 H                 -2.89026900   -6.51790200   -3.06063400
 H                 -1.96476100   -5.47431500   -1.96288200
 H                 -4.71977900   -4.29016300   -4.28075800
 H                 -3.64705500   -3.82522300   -5.60586300
 H                 -3.88967000   -5.53823000   -5.21521100




