%chk=YZ-IX-165.chk
%nprocshared=16
%mem=16GB
#p opt=Restart wb97xd/6-31G** iop(3/107=0109400000,3/108=0109400000) TDA=(triplets, nstates=4, root=2)

Tuning input file generated by xtune with parameters: w01094

0 1
 C                  1.53092300    3.67891200    0.54387800
 C                 -0.23060900    3.87675400   -0.88008100
 C                  2.47865400    3.24717300    1.46752200
 C                  1.49452800    5.02407800    0.11919500
 C                 -1.31602200    3.65909900   -1.72397700
 C                  0.37280000    5.14956400   -0.79218800
 C                  3.40560300    4.17754800    1.93397000
 H                  2.50451500    2.22583500    1.82910900
 C                  2.43411800    5.93104000    0.60573600
 C                 -1.80455000    4.74254200   -2.45210300
 H                 -1.77414900    2.68271100   -1.82976700
 C                 -0.13821900    6.21281800   -1.53404400
 C                  3.41290300    5.52254700    1.51870200
 H                  4.14178800    3.83061200    2.64835000
 H                  2.39301400    6.96232700    0.26961200
 C                 -1.24250500    6.03066400   -2.37413000
 H                 -2.65252100    4.56324000   -3.10133600
 H                  0.33683300    7.18559900   -1.45494000
 C                  0.18985100    1.61917100    0.10679500
 C                 -1.11459900    1.18859200    0.35081200
 C                 -1.41028400   -0.16550300    0.50962400
 C                 -0.38295900   -1.12955200    0.47042500
 C                  0.92775600   -0.68688000    0.20950700
 C                  1.20371200    0.66374400    0.01668300
 C                 -3.47802900   -0.55124100    1.88002400
 C                 -3.63342800   -0.83892100   -0.35768700
 C                 -3.04370400   -0.29405200    3.17438800
 C                 -4.80921800   -0.93809400    1.61222300
 C                 -3.38814700   -0.90813000   -1.72493700
 C                 -4.90909900   -1.12605400    0.17686400
 C                 -3.97069000   -0.42844800    4.20565500
 H                 -2.01837600   -0.00843500    3.38203400
 C                 -5.71197600   -1.06161200    2.66687100
 C                 -4.44226000   -1.28831900   -2.55583000
 H                 -2.41233600   -0.67357800   -2.13770400
 C                 -5.94087000   -1.49918800   -0.68172700
 C                 -5.30867500   -0.80898800    3.98321000
 H                 -3.62837300   -0.23164800    5.21414200
 H                 -6.73344400   -1.36152000    2.45420600
 C                 -5.72557500   -1.59209000   -2.06301400
 H                 -4.24743000   -1.34255100   -3.62010600
 H                 -6.91796300   -1.72181600   -0.26440300
 C                  2.97728900   -1.87494800    1.02302100
 C                  2.54180700   -1.92999400   -1.19735700
 C                  2.94291500   -1.64884700    2.39680400
 C                  4.09188500   -2.47497500    0.40618000
 C                  1.98213700   -1.78729600   -2.46082400
 C                  3.81094000   -2.51930400   -1.01685000
 C                  4.04898100   -2.04210900    3.13767900
 H                  2.07403100   -1.21215700    2.87349300
 C                  5.18651600   -2.87098700    1.18275200
 C                  2.70707500   -2.26774700   -3.54843500
 H                  1.00723000   -1.33426700   -2.59933700
 C                  4.50993900   -2.99455000   -2.12574700
 C                  5.18386300   -2.65796400    2.56107600
 H                  4.02423300   -1.87347900    4.20936300
 H                  6.03417700   -3.33523700    0.69305200
 C                  3.96761600   -2.88120300   -3.41122800
 H                  2.26452200   -2.16154400   -4.53104000
 H                  5.48359300   -3.45175300   -1.97895100
 C                  4.44327400    6.54310500    2.03498900
 C                 -1.79094100    7.22411800   -3.17706500
 N                  0.47680400    2.98145300   -0.06436100
 N                 -2.77743100   -0.48933200    0.67897500
 N                  2.01130000   -1.59279800    0.05127800
 C                 -6.32703900   -0.95971900    5.12840200
 C                 -6.88520500   -2.01721000   -2.98244400
 C                  4.76041800   -3.41771600   -4.61712100
 C                  6.35824800   -3.06762200    3.46670600
 S                 -0.66813500   -2.88941400    0.89341600
 C                 -0.14313900   -3.80595700   -0.55037000
 C                 -0.96100000   -3.79425300   -1.68089100
 C                  1.03147000   -4.55157700   -0.49624100
 C                 -0.56831800   -4.53111300   -2.79528100
 H                 -1.89046600   -3.23434600   -1.68016200
 C                  1.40663300   -5.29088300   -1.61562500
 H                  1.63791600   -4.53488700    0.40178600
 C                  0.61298100   -5.27440200   -2.76213800
 H                 -1.18917700   -4.53201000   -3.68444300
 H                  2.32472300   -5.86599600   -1.59438700
 H                  0.91360200   -5.84597200   -3.63356700
 O                  0.24029600   -3.18508300    2.00104300
 O                 -2.10247800   -3.11000100    1.04064100
 H                  2.21769400    0.95690700   -0.22740200
 H                 -1.92641200    1.90100900    0.43059800
 C                 -0.68521700    7.76581500   -4.11096600
 H                 -1.05932300    8.61410000   -4.69406900
 H                  0.18876400    8.10903400   -3.55031700
 H                 -0.35160200    6.99179300   -4.80853700
 C                 -2.23274400    8.33786800   -2.20111300
 H                 -1.40018700    8.69532100   -1.58871800
 H                 -2.63008900    9.19546300   -2.75447100
 H                 -3.01303100    7.97564800   -1.52520200
 C                 -3.00323400    6.83982500   -4.04423100
 H                 -2.74877500    6.07352700   -4.78315400
 H                 -3.83726700    6.47279000   -3.43802200
 H                 -3.35664600    7.71884700   -4.59151500
 C                  3.70746100    7.69775200    2.75161300
 H                  4.42643200    8.43193300    3.13054000
 H                  3.02159600    8.22187600    2.08017700
 H                  3.12448000    7.32175400    3.59759100
 C                  5.24775600    7.10641400    0.84179800
 H                  4.60178500    7.61280300    0.11908200
 H                  5.98980600    7.83280800    1.19005100
 H                  5.77449600    6.30515200    0.31501600
 C                  5.43801000    5.91941800    3.03038900
 H                  4.93328500    5.52772700    3.91905000
 H                  6.01557300    5.10901600    2.57484100
 H                  6.14840900    6.68108200    3.36551700
 C                  6.91877300   -1.81691500    4.18079100
 H                  6.16403400   -1.33330200    4.80711600
 H                  7.75988400   -2.09044300    4.82690100
 H                  7.27205300   -1.07998100    3.45317500
 C                  5.86514900   -4.08554600    4.51985000
 H                  5.08023600   -3.66665100    5.15541100
 H                  5.46000000   -4.97915800    4.03596000
 H                  6.69112400   -4.39252700    5.17050300
 C                  7.50563200   -3.71849900    2.67380200
 H                  7.18056500   -4.63190700    2.16577200
 H                  7.92109800   -3.03569500    1.92586400
 H                  8.31614800   -3.99231200    3.35595600
 C                  6.11118200   -2.67359000   -4.71597400
 H                  6.72013300   -2.81768100   -3.81913900
 H                  6.68858600   -3.03853500   -5.57229900
 H                  5.95339800   -1.59845700   -4.84281200
 C                  4.00930900   -3.22375200   -5.94658700
 H                  3.04885800   -3.74886000   -5.95098600
 H                  3.82550200   -2.16611600   -6.15955200
 H                  4.60806200   -3.62526300   -6.76972500
 C                  5.01907200   -4.92976800   -4.43112200
 H                  4.07520900   -5.47838600   -4.35964500
 H                  5.58311500   -5.32996200   -5.28047600
 H                  5.59487400   -5.13558000   -3.52451400
 C                 -6.47095500   -2.06929900   -4.46406300
 H                 -6.14184000   -1.09143700   -4.82969400
 H                 -5.66668500   -2.79169400   -4.63596600
 H                 -7.32530200   -2.37755000   -5.07435000
 C                 -8.04723200   -1.00776100   -2.84578700
 H                 -8.88209700   -1.29372800   -3.49479400
 H                 -8.42519500   -0.96061100   -1.82075000
 H                 -7.72309900   -0.00160100   -3.12833100
 C                 -7.37483900   -3.42468100   -2.57307900
 H                 -6.56600900   -4.15669100   -2.65608300
 H                 -7.73623600   -3.44467900   -1.54129500
 H                 -8.19782900   -3.74746200   -3.22001900
 C                 -7.50820300    0.00962500    4.89749400
 H                 -8.02351200   -0.19567000    3.95496700
 H                 -8.24316300   -0.08236200    5.70465900
 H                 -7.15992700    1.04652200    4.86837800
 C                 -6.85184100   -2.41291600    5.15980200
 H                 -6.03052100   -3.11869200    5.31441900
 H                 -7.57414300   -2.54203400    5.97333300
 H                 -7.35186500   -2.68400400    4.22579300
 C                 -5.71398000   -0.64454800    6.50474600
 H                 -4.88827000   -1.32098600    6.74634700
 H                 -5.34554200    0.38471400    6.55997100
 H                 -6.47492200   -0.76366500    7.28213100

